32	0

0	3	2	5	3
5	1	4
4	1	4
8	1	6
10	1	6
2	2	7	11
3	2	8	10
1	1	9
5	2	12	13
7	1	13
8	2	12	13
9	2	14	16
6	2	14	16
2	1	15
7	2	17	18
9	2	17	18
1	2	19	20
3	2	19	20
2	1	21
6	1	23
2	2	22	24
1	1	23
2	2	25	26
4	2	25	26
6	2	27	28
6	2	27	28
6	1	30
2	2	29	30
5	1	31
2	1	31
1	1	32
0	0
